molecule h2_2{
H
H 1 R
H 1 D 2 P
H 3 R 1 P 2 T

R = 0.75
D = 1.5
P = 90.0
T = 60.0
}
