molecule h2_5{   
H
H 1 R
H 1 D 2 P
H 3 R 1 P 2 T
H 3 D 4 P 1 X
H 5 R 3 P 4 T
H 5 D 6 P 3 X
H 7 R 5 P 6 T
H 7 D 8 P 5 X
H 9 R 7 P 8 T

R = 0.75
D = 1.5
P = 90.0
T = 60.0
X = 180.0
}
